c Random generated cnf formula, satisfiable: false
p cnf 10 50
1 8 -5 0
1 -9 10 0
-10 -9 6 0
10 -3 1 0
4 -3 9 0
-3 7 -4 0
-1 -10 -9 0
6 -9 -1 0
10 -6 -1 0
2 8 3 0
8 -4 6 0
-6 -5 -7 0
-6 -9 -2 0
-1 3 -8 0
7 -10 -3 0
-9 2 -1 0
8 7 -5 0
-7 -9 5 0
-1 -8 -5 0
-5 -1 -8 0
1 -2 3 0
-1 2 3 0
3 -2 4 0
8 5 7 0
-8 -10 7 0
2 -10 5 0
-5 10 -3 0
-10 9 5 0
-1 -7 -9 0
6 2 -4 0
7 2 1 0
-8 10 5 0
-8 -9 10 0
-9 -2 5 0
1 -8 -4 0
8 7 -3 0
5 9 10 0
5 7 1 0
-4 1 -8 0
-3 -5 9 0
3 7 2 0
-4 -1 10 0
1 -3 -6 0
9 -6 -10 0
10 -8 1 0
-6 5 -7 0
-9 -1 8 0
1 -5 9 0
-9 -1 -10 0
-3 -5 -4 0
